
Gurobi 9.0.2 (win64) logging started Tue Sep  8 15:14:46 2020

Academic license - for non-commercial use only

Gurobi 9.0.2 (win64) logging started Tue Sep  8 15:35:51 2020

Academic license - for non-commercial use only

Gurobi 9.0.2 (win64) logging started Tue Sep  8 15:35:56 2020

Academic license - for non-commercial use only

Gurobi 9.0.2 (win64) logging started Tue Sep  8 15:40:11 2020

Academic license - for non-commercial use only

Gurobi 9.0.2 (win64) logging started Tue Sep  8 15:40:17 2020

Academic license - for non-commercial use only

Gurobi 9.0.2 (win64) logging started Tue Sep  8 15:46:35 2020

Academic license - for non-commercial use only

Gurobi 9.0.2 (win64) logging started Tue Sep  8 15:46:42 2020

Academic license - for non-commercial use only

Gurobi 9.0.2 (win64) logging started Tue Sep  8 17:23:07 2020

Academic license - for non-commercial use only

Gurobi 9.0.2 (win64) logging started Tue Sep  8 17:23:13 2020

Academic license - for non-commercial use only

Gurobi 9.0.2 (win64) logging started Tue Sep  8 17:27:32 2020

Academic license - for non-commercial use only

Gurobi 9.0.2 (win64) logging started Tue Sep  8 17:27:37 2020

Academic license - for non-commercial use only

Gurobi 9.0.2 (win64) logging started Tue Sep  8 17:33:15 2020

Academic license - for non-commercial use only

Gurobi 9.0.2 (win64) logging started Tue Sep  8 17:33:21 2020

Academic license - for non-commercial use only

Gurobi 9.0.2 (win64) logging started Tue Sep  8 17:35:54 2020

Academic license - for non-commercial use only

Gurobi 9.0.2 (win64) logging started Tue Sep  8 17:35:59 2020

Academic license - for non-commercial use only

Gurobi 9.0.2 (win64) logging started Tue Sep  8 22:14:35 2020

Academic license - for non-commercial use only

Gurobi 9.0.2 (win64) logging started Tue Sep  8 22:14:40 2020

Academic license - for non-commercial use only

Gurobi 9.0.2 (win64) logging started Tue Sep  8 22:14:51 2020

Academic license - for non-commercial use only

Gurobi 9.0.2 (win64) logging started Tue Sep  8 22:15:04 2020

Academic license - for non-commercial use only

Gurobi 9.0.2 (win64) logging started Tue Sep  8 22:15:10 2020

Academic license - for non-commercial use only

Gurobi 9.0.2 (win64) logging started Tue Sep  8 22:15:28 2020

Academic license - for non-commercial use only

Gurobi 9.0.2 (win64) logging started Tue Sep  8 22:32:59 2020

Academic license - for non-commercial use only

Gurobi 9.0.2 (win64) logging started Tue Sep  8 22:33:04 2020

Academic license - for non-commercial use only

Gurobi 9.0.2 (win64) logging started Tue Sep  8 22:33:16 2020

Academic license - for non-commercial use only

Gurobi 9.0.2 (win64) logging started Tue Sep  8 22:33:22 2020

Academic license - for non-commercial use only

Gurobi 9.0.2 (win64) logging started Tue Sep  8 22:33:31 2020

Academic license - for non-commercial use only

Gurobi 9.0.2 (win64) logging started Tue Sep  8 22:33:38 2020

Academic license - for non-commercial use only

Gurobi 9.0.2 (win64) logging started Tue Sep  8 22:33:44 2020

Academic license - for non-commercial use only

Gurobi 9.0.2 (win64) logging started Tue Sep  8 22:33:57 2020

Academic license - for non-commercial use only

Gurobi 9.0.2 (win64) logging started Tue Sep  8 22:37:29 2020

Academic license - for non-commercial use only

Gurobi 9.0.2 (win64) logging started Tue Sep  8 22:37:35 2020

Academic license - for non-commercial use only

Gurobi 9.0.2 (win64) logging started Tue Sep  8 22:37:46 2020

Academic license - for non-commercial use only

Gurobi 9.0.2 (win64) logging started Tue Sep  8 22:37:57 2020

Academic license - for non-commercial use only

Gurobi 9.0.2 (win64) logging started Tue Sep  8 22:38:07 2020

Academic license - for non-commercial use only

Gurobi 9.0.2 (win64) logging started Tue Sep  8 22:38:13 2020

Academic license - for non-commercial use only

Gurobi 9.0.2 (win64) logging started Tue Sep  8 22:38:19 2020

Academic license - for non-commercial use only

Gurobi 9.0.2 (win64) logging started Tue Sep  8 22:38:31 2020

Academic license - for non-commercial use only
